11
2147483647 23 64 54 13 89 98 68 31 21 33 
23 2147483647 3 96 52 31 10 96 83 74 53 
64 3 2147483647 20 23 89 70 17 21 75 55 
54 96 20 2147483647 27 15 54 46 32 63 13 
13 52 23 27 2147483647 90 38 30 59 17 92 
89 31 89 15 90 2147483647 95 11 88 70 22 
98 10 70 54 38 95 2147483647 35 51 45 100 
68 96 17 46 30 11 35 2147483647 95 14 93 
31 83 21 32 59 88 51 95 2147483647 91 17 
21 74 75 63 17 70 45 14 91 2147483647 87 
33 53 55 13 92 22 100 93 17 87 2147483647 
